(declare-fun ExpandObjSwitcher () Real)
(declare-fun Constructed_Argument_t () String)
(declare-fun CreateAsClass () Bool)
(declare-fun |0 Fill 0| () String)
(declare-fun |0 Fill 1| () String)
(declare-fun |0 Fill 2| () String)
(declare-fun |0 Fill 3| () String)
(declare-fun |0 Fill 6| () String)
(declare-fun |0 Fill 5| () String)
(declare-fun |0 Fill 4| () String)
(declare-fun Constructed_Argument () String)
(declare-fun |IsMatch_/\\x1B\\[\\d+m/_0| () Bool)
(declare-fun |1 Fill 0| () String)
(declare-fun |1 Fill 1| () String)
(declare-fun |1 Fill 2| () String)
(declare-fun |1 Fill 3| () String)
(declare-fun |1 Fill 6| () String)
(declare-fun |1 Fill 5| () String)
(declare-fun |1 Fill 4| () String)
(declare-fun |IsMatch_/\\x1B\\[\\d+m/_1| () Bool)
(declare-fun |2 Fill 0| () String)
(declare-fun |2 Fill 1| () String)
(declare-fun |2 Fill 2| () String)
(declare-fun |2 Fill 3| () String)
(declare-fun |2 Fill 6| () String)
(declare-fun |2 Fill 5| () String)
(declare-fun |2 Fill 4| () String)
(declare-fun |IsMatch_/\\x1B\\[\\d+m/_2| () Bool)
(declare-fun Constructed_Argument_2_t () String)
(define-funs-rec ( ( str.repeat ((x!1 String) (x!2 Int)) String)
                   ( str.whiteLeft ((x!1 String) (x!2 Int)) Int)
                   ( str.whiteRight ((x!1 String) (x!2 Int)) Int))
                 ( (ite (<= x!2 0)
                        ""
                        (str.++ x!1 ((_ str.repeat 0) x!1 (- x!2 1))))
                   (ite (= (str.at x!1 x!2) " ")
                        ((_ str.whiteLeft 0) x!1 (+ x!2 1))
                        x!2)
                   (ite (= (str.at x!1 x!2) " ")
                        ((_ str.whiteRight 0) x!1 (- x!2 1))
                        x!2)))
(assert (= ExpandObjSwitcher 3.0))
(assert (= Constructed_Argument_t "string"))
(assert (not CreateAsClass))
(assert (= |0 Fill 0| "\x1B"))
(assert (= |0 Fill 1| "["))
(assert (str.in.re |0 Fill 2| (re.++ (re.range "0" "9") (re.* (re.range "0" "9")))))
(assert (= |0 Fill 3| "m"))
(assert (str.in.re |0 Fill 6|
           (re.++ (str.to.re "\x1B[")
                  (re.range "0" "9")
                  (re.* (re.range "0" "9"))
                  (str.to.re "m"))))
(assert (= |0 Fill 6| (str.++ "\x1B[" |0 Fill 2| "m")))
(assert (= Constructed_Argument (str.++ |0 Fill 4| "\x1B[" |0 Fill 2| "m" |0 Fill 5|)))
(assert (str.in.re Constructed_Argument
           (re.++ (re.* (re.range "\x00" "\xff"))
                  (str.to.re "\x1B[")
                  (re.range "0" "9")
                  (re.* (re.range "0" "9"))
                  (str.to.re "m")
                  (re.* (re.range "\x00" "\xff")))))
(assert |IsMatch_/\\x1B\\[\\d+m/_0|)
(assert (= |1 Fill 0| "\x1B"))
(assert (= |1 Fill 1| "["))
(assert (str.in.re |1 Fill 2| (re.++ (re.range "0" "9") (re.* (re.range "0" "9")))))
(assert (= |1 Fill 3| "m"))
(assert (str.in.re |1 Fill 6|
           (re.++ (str.to.re "\x1B[")
                  (re.range "0" "9")
                  (re.* (re.range "0" "9"))
                  (str.to.re "m"))))
(assert (= |1 Fill 6| (str.++ "\x1B[" |1 Fill 2| "m")))
(assert (let ((a!1 (>= (+ (str.len |0 Fill 4|) (* (- 1) (str.len Constructed_Argument)))
               0))
      (a!3 (ite (>= (+ (str.len |0 Fill 4|)
                       (str.len |0 Fill 6|)
                       (str.len Constructed_Argument))
                    0)
                (+ (str.len |0 Fill 4|)
                   (str.len |0 Fill 6|)
                   (str.len Constructed_Argument))
                0)))
(let ((a!2 (ite (<= (str.len Constructed_Argument) 0)
                ""
                (str.substr Constructed_Argument
                            0
                            (ite a!1
                                 (str.len Constructed_Argument)
                                 (str.len |0 Fill 4|)))))
      (a!4 (ite (>= (+ (str.len |0 Fill 4|) (str.len |0 Fill 6|)) 0)
                (+ (str.len |0 Fill 4|) (str.len |0 Fill 6|))
                a!3)))
(let ((a!5 (ite (<= (+ (str.len Constructed_Argument) (* (- 1) a!4)) 0)
                ""
                (str.substr Constructed_Argument
                            a!4
                            (+ (str.len Constructed_Argument) (* (- 1) a!4))))))
  (= (str.++ a!2 a!5) (str.++ |1 Fill 4| "\x1B[" |1 Fill 2| "m" |1 Fill 5|))))))
(assert (str.in.re (str.++ |1 Fill 4| "\x1B[" |1 Fill 2| "m" |1 Fill 5|)
           (re.++ (re.* (re.range "\x00" "\xff"))
                  (str.to.re "\x1B[")
                  (re.range "0" "9")
                  (re.* (re.range "0" "9"))
                  (str.to.re "m")
                  (re.* (re.range "\x00" "\xff")))))
(assert |IsMatch_/\\x1B\\[\\d+m/_1|)
(assert (= |2 Fill 0| "\x1B"))
(assert (= |2 Fill 1| "["))
(assert (str.in.re |2 Fill 2| (re.++ (re.range "0" "9") (re.* (re.range "0" "9")))))
(assert (= |2 Fill 3| "m"))
(assert (str.in.re (str.++ "\x1B[" |2 Fill 2| "m")
           (re.++ (str.to.re "\x1B[")
                  (re.range "0" "9")
                  (re.* (re.range "0" "9"))
                  (str.to.re "m"))))
(assert (= |2 Fill 6| (str.++ "\x1B[" |2 Fill 2| "m")))
(assert (let ((a!1 (>= (+ (str.len |0 Fill 4|) (* (- 1) (str.len Constructed_Argument)))
               0))
      (a!3 (ite (>= (+ (str.len |0 Fill 4|)
                       (str.len |0 Fill 6|)
                       (str.len Constructed_Argument))
                    0)
                (+ (str.len |0 Fill 4|)
                   (str.len |0 Fill 6|)
                   (str.len Constructed_Argument))
                0)))
(let ((a!2 (ite (<= (str.len Constructed_Argument) 0)
                ""
                (str.substr Constructed_Argument
                            0
                            (ite a!1
                                 (str.len Constructed_Argument)
                                 (str.len |0 Fill 4|)))))
      (a!4 (ite (>= (+ (str.len |0 Fill 4|) (str.len |0 Fill 6|)) 0)
                (+ (str.len |0 Fill 4|) (str.len |0 Fill 6|))
                a!3)))
(let ((a!5 (ite (<= (+ (str.len Constructed_Argument) (* (- 1) a!4)) 0)
                ""
                (str.substr Constructed_Argument
                            a!4
                            (+ (str.len Constructed_Argument) (* (- 1) a!4))))))
(let ((a!6 (>= (+ (str.len |1 Fill 4|)
                  (* (- 1) (str.len a!2))
                  (* (- 1) (str.len a!5)))
               0))
      (a!9 (ite (>= (+ (str.len |1 Fill 4|)
                       (str.len |1 Fill 6|)
                       (str.len a!2)
                       (str.len a!5))
                    0)
                (+ (str.len |1 Fill 4|)
                   (str.len |1 Fill 6|)
                   (str.len a!2)
                   (str.len a!5))
                0)))
(let ((a!7 (str.substr (str.++ |1 Fill 4| "\x1B[" |1 Fill 2| "m" |1 Fill 5|)
                       0
                       (ite a!6
                            (+ (str.len a!2) (str.len a!5))
                            (str.len |1 Fill 4|))))
      (a!10 (ite (>= (+ (str.len |1 Fill 4|) (str.len |1 Fill 6|)) 0)
                 (+ (str.len |1 Fill 4|) (str.len |1 Fill 6|))
                 a!9)))
(let ((a!8 (ite (<= (+ (str.len a!2) (str.len a!5)) 0) "" a!7))
      (a!11 (ite (<= (+ (str.len a!2) (str.len a!5) (* (- 1) a!10)) 0)
                 ""
                 (str.substr (str.++ |1 Fill 4|
                                     "\x1B["
                                     |1 Fill 2|
                                     "m"
                                     |1 Fill 5|)
                             a!10
                             (+ (str.len a!2) (str.len a!5) (* (- 1) a!10))))))
(let ((a!12 (str.in.re (str.++ a!8 a!11)
                       (re.++ (re.* (re.range "\x00" "\xff"))
                              (str.to.re "\x1B[")
                              (re.range "0" "9")
                              (re.* (re.range "0" "9"))
                              (str.to.re "m")
                              (re.* (re.range "\x00" "\xff"))))))
  (or (not a!12)
      (= (str.++ a!8 a!11) (str.++ |2 Fill 4| |2 Fill 6| |2 Fill 5|)))))))))))
(assert (let ((a!1 (>= (+ (str.len |0 Fill 4|) (* (- 1) (str.len Constructed_Argument)))
               0))
      (a!3 (ite (>= (+ (str.len |0 Fill 4|)
                       (str.len |0 Fill 6|)
                       (str.len Constructed_Argument))
                    0)
                (+ (str.len |0 Fill 4|)
                   (str.len |0 Fill 6|)
                   (str.len Constructed_Argument))
                0)))
(let ((a!2 (ite (<= (str.len Constructed_Argument) 0)
                ""
                (str.substr Constructed_Argument
                            0
                            (ite a!1
                                 (str.len Constructed_Argument)
                                 (str.len |0 Fill 4|)))))
      (a!4 (ite (>= (+ (str.len |0 Fill 4|) (str.len |0 Fill 6|)) 0)
                (+ (str.len |0 Fill 4|) (str.len |0 Fill 6|))
                a!3)))
(let ((a!5 (ite (<= (+ (str.len Constructed_Argument) (* (- 1) a!4)) 0)
                ""
                (str.substr Constructed_Argument
                            a!4
                            (+ (str.len Constructed_Argument) (* (- 1) a!4))))))
(let ((a!6 (>= (+ (str.len |1 Fill 4|)
                  (* (- 1) (str.len a!2))
                  (* (- 1) (str.len a!5)))
               0))
      (a!9 (ite (>= (+ (str.len |1 Fill 4|)
                       (str.len |1 Fill 6|)
                       (str.len a!2)
                       (str.len a!5))
                    0)
                (+ (str.len |1 Fill 4|)
                   (str.len |1 Fill 6|)
                   (str.len a!2)
                   (str.len a!5))
                0)))
(let ((a!7 (str.substr (str.++ |1 Fill 4| "\x1B[" |1 Fill 2| "m" |1 Fill 5|)
                       0
                       (ite a!6
                            (+ (str.len a!2) (str.len a!5))
                            (str.len |1 Fill 4|))))
      (a!10 (ite (>= (+ (str.len |1 Fill 4|) (str.len |1 Fill 6|)) 0)
                 (+ (str.len |1 Fill 4|) (str.len |1 Fill 6|))
                 a!9)))
(let ((a!8 (ite (<= (+ (str.len a!2) (str.len a!5)) 0) "" a!7))
      (a!11 (ite (<= (+ (str.len a!2) (str.len a!5) (* (- 1) a!10)) 0)
                 ""
                 (str.substr (str.++ |1 Fill 4|
                                     "\x1B["
                                     |1 Fill 2|
                                     "m"
                                     |1 Fill 5|)
                             a!10
                             (+ (str.len a!2) (str.len a!5) (* (- 1) a!10))))))
(let ((a!12 (str.in.re (str.++ a!8 a!11)
                       (re.++ (re.* (re.range "\x00" "\xff"))
                              (str.to.re "\x1B[")
                              (re.range "0" "9")
                              (re.* (re.range "0" "9"))
                              (str.to.re "m")
                              (re.* (re.range "\x00" "\xff"))))))
  (= a!12 |IsMatch_/\\x1B\\[\\d+m/_2|)))))))))
(assert (not |IsMatch_/\\x1B\\[\\d+m/_2|))
(assert (let ((a!1 (>= (+ (str.len |0 Fill 4|) (* (- 1) (str.len Constructed_Argument)))
               0))
      (a!3 (ite (>= (+ (str.len |0 Fill 4|)
                       (str.len |0 Fill 6|)
                       (str.len Constructed_Argument))
                    0)
                (+ (str.len |0 Fill 4|)
                   (str.len |0 Fill 6|)
                   (str.len Constructed_Argument))
                0)))
(let ((a!2 (ite (<= (str.len Constructed_Argument) 0)
                ""
                (str.substr Constructed_Argument
                            0
                            (ite a!1
                                 (str.len Constructed_Argument)
                                 (str.len |0 Fill 4|)))))
      (a!4 (ite (>= (+ (str.len |0 Fill 4|) (str.len |0 Fill 6|)) 0)
                (+ (str.len |0 Fill 4|) (str.len |0 Fill 6|))
                a!3)))
(let ((a!5 (ite (<= (+ (str.len Constructed_Argument) (* (- 1) a!4)) 0)
                ""
                (str.substr Constructed_Argument
                            a!4
                            (+ (str.len Constructed_Argument) (* (- 1) a!4))))))
(let ((a!6 (ite (>= (+ (str.len |1 Fill 4|)
                       (str.len |1 Fill 6|)
                       (str.len a!2)
                       (str.len a!5))
                    0)
                (+ (str.len |1 Fill 4|)
                   (str.len |1 Fill 6|)
                   (str.len a!2)
                   (str.len a!5))
                0))
      (a!9 (>= (+ (str.len |1 Fill 4|)
                  (* (- 1) (str.len a!2))
                  (* (- 1) (str.len a!5)))
               0)))
(let ((a!7 (ite (>= (+ (str.len |1 Fill 4|) (str.len |1 Fill 6|)) 0)
                (+ (str.len |1 Fill 4|) (str.len |1 Fill 6|))
                a!6))
      (a!10 (str.substr (str.++ |1 Fill 4| "\x1B[" |1 Fill 2| "m" |1 Fill 5|)
                        0
                        (ite a!9
                             (+ (str.len a!2) (str.len a!5))
                             (str.len |1 Fill 4|)))))
(let ((a!8 (ite (<= (+ (str.len a!2) (str.len a!5) (* (- 1) a!7)) 0)
                ""
                (str.substr (str.++ |1 Fill 4|
                                    "\x1B["
                                    |1 Fill 2|
                                    "m"
                                    |1 Fill 5|)
                            a!7
                            (+ (str.len a!2) (str.len a!5) (* (- 1) a!7)))))
      (a!11 (ite (<= (+ (str.len a!2) (str.len a!5)) 0) "" a!10)))
(let ((a!12 (<= (+ (to_real (str.len a!8)) (to_real (str.len a!11))) 0.0)))
  (not a!12)))))))))
(assert (= Constructed_Argument_2_t "string"))

(check-sat)